0 602 9773 11902 791 9759 8896 1262 6991 6201 4165
602 0 1067 11694 8003 12282 11408 2837 10421 5194 7272
9773 1067 0 11368 8428 11967 9615 5303 7057 753 11213
11902 11694 11368 0 8405 6433 1432 2788 10240 6497 9024
791 8003 8428 8405 0 3912 151 10757 11488 6117 11188
9759 12282 11967 6433 3912 0 6174 724 2010 8527 5206
8896 11408 9615 1432 151 6174 0 6949 1629 6342 925
1262 2837 5303 2788 10757 724 6949 0 2271 2861 8899
6991 10421 7057 10240 11488 2010 1629 2271 0 8474 1962
6201 5194 753 6497 6117 8527 6342 2861 8474 0 931
4165 7272 11213 9024 11188 5206 925 8899 1962 931 0
